NAME : random1061010
COMMENT: random generated with id 1061010
TYPE : TSP
DIMENSION : 10
EDGE_WEIGHT_TYPE : EUC_2D
NODE_COORD_SECTION
1 8.979993 9.047024
2 18.257355 18.004660
3 2.864659 5.118952
4 6.261795 12.753604
5 6.953811 5.249294
6 8.531643 6.858693
7 2.322839 11.741326
8 13.580873 18.603621
9 8.005174 14.636052
10 2.162443 8.323506
EOF
